outputs/case_356.model.txt
data_storage_location_foreign = True
involves_national_important_interests = False
recipient_country_data_protection_inadequate = False
personal_data_protection_law_international_transfer_restriction = True
board_resolution_submitted = True
important_customer_data_backup_in_domestic = True
personal_data_security_measures_compliant = True
data_storage_location_domestic = False
regulatory_approval_obtained = True
head_office_authorized_consent_submitted = False
circumventing_law_by_transferring_to_third_country = True
is_foreign_branch = False
international_treaty_special_provision = False
capital_to_risk_ratio = 5/4
electronic_payment_cloud_service_compliance = True
information_security_and_management_included = True
outsourcing_service_interruption_backup_plan_established = True
outsourcing_consent_letter_submitted = True
outsourcing_internal_operation_specification_submitted = True
outsourcing_contract_includes_transfer_and_compensation_clauses = True
outsourcing_no_fraud_statement_submitted = True
outsourcing_necessity_and_legality_analysis_submitted = True
emergency_response_plan_included = True
risk_assessment_and_management_mechanism_included = True
outsourcing_info_system_security_meets_standards = True
outsourcing_cost_benefit_and_cost_sharing_approved = True
customer_info_protection_and_consent_included = True
outsourcing_customer_info_usage_compliant = True
outsourcing_plan_submitted = True
outsourcing_annual_general_and_special_audit_completed = True
no_major_internal_control_deficiencies_last_year = True
customer_data_encryption_or_tokenization = True
audit_report_covers_electronic_payment_scope = True
data_ownership_retained = True
internal_handling_system_established = True
asset_allocation_and_risk_management_established = True
customer_personal_data_protection_and_security_measures_established = True
application_and_documents_submitted = True
information_security_and_emergency_response_plan_established = True
risk_value_evaluation_and_daily_control_implemented = True
usage_restrictions_specified = True
cloud_service_data_ownership_and_access_control = True
third_party_audit_engaged = True
capital_adequacy_monitoring_established = True
know_your_customer_and_suitability_assessment_established = True
customer_dispute_resolution_mechanism_established = True
consistent_operation_principles_established = True
cloud_service_supervision = True
audit_scope_covers_important_systems = True
cloud_service_supervision_technical_resources = True
cloud_service_provider_access_restricted = True
trading_plan_approved_by_board = True
cloud_service_policy_established = True
auto_investment_advisor_internal_audit_performed = True
internal_handling_system_established_flag = True
product_information_accuracy_and_sufficiency_assessed = True
derivative_product_types_specified = True
investment_benefit_goals_and_performance_measures_specified = True
derivative_financial_products_internal_system_established_flag = True
cloud_service_provider_no_unauthorized_use = True
internal_audit_reports_prepared = True
encryption_measures_implemented = True
other_regulatory_qualifications_met = True
audit_report_meets_international_standards = True
internal_operation_system_established = True
dedicated_unit_established = True
cloud_service_risk_control_measures_implemented = True
internal_control_and_audit_system_established = True
outsourcing_plan_content_compliant = True
no_major_penalties_last_year = True
foreign_data_protection_laws_not_lower_than_domestic = True
cloud_service_third_party_audit_compliance = True
outsourcing_compliance = True
internal_audit_staff_assigned = True
third_party_qualification_assessed = True
derivative_financial_products_internal_system_established = True
internal_operation_system_established_flag = True
cloud_service_policy_and_risk_control = True
backup_data_protection_implemented = True
audit_report_covers_financial_institution_scope = True
liquidity_management_mechanism_established = True
equipment_and_storage_media_usage_specified = True
investment_product_legality_and_risk_reward_assessed = True
algorithm_and_system_supervision_mechanism_established = True
encryption_key_management_mechanism_established = True
data_processing_and_storage_location_rights_held = True
outsourcing_foreign_branch_handling_compliance = True
conflict_of_interest_prevention_mechanism_established = True
emergency_response_plan_and_control_measures_established = True
cloud_service_data_storage_location_compliance = True
risk_management_mechanism_compliance = True
internal_control_and_audit_system_established_flag = True
auto_investment_advisor_internal_control_minimum_requirements_met = True
outsourcing_post_approval_compliance = True
internal_control_or_management_system_established = True
derivative_financial_products_trading_plan_approved = True
derivative_financial_products_trading_plan_content_compliant = True
derivative_financial_products_qualification_met = True
auto_investment_advisor_internal_control_established = True
cloud_service_provider_diversification_ensured = True
cloud_service_final_supervision_responsibility = True
penalty = False
outsourcing_approval_documents_submitted = True
risk_limit_management_mechanism_specified = True
cloud_service_customer_data_protection = True
international_transfer_restriction = True
asset_quality_and_loss_provisioning_established = True